; benchmark generated from python API
(set-info :status unknown)
(declare-fun x_days () Int)
(declare-fun y_days () Int)
(assert
 (>= x_days (- 36584)))
(assert
 (<= x_days 36829))
(assert
 (>= y_days (- 36584)))
(assert
 (<= y_days 36829))
(assert
 (>= x_days 7244))
(assert
 (<= x_days 7276))
(assert
 (let ((?x512 (+ x_days 730179)))
 (let ((?x330 (mod ?x512 146097)))
 (let ((?x489 (div ?x330 36524)))
 (let ((?x320 (ite (<= 4 ?x489) 3 ?x489)))
 (let ((?x482 (- ?x330 (* ?x320 36524))))
 (let ((?x724 (mod ?x482 1461)))
 (let ((?x412 (div ?x724 365)))
 (let ((?x931 (ite (<= 4 ?x412) 3 ?x412)))
 (let ((?x963 (+ (+ (* (div ?x512 146097) 400) (* ?x320 100)) (* (div ?x482 1461) 4))))
 (let ((?x598 (+ (+ ?x963 ?x931) 1)))
 (let (($x1625 (or (and (= (mod ?x598 4) 0) (and (distinct (mod ?x598 100) 0) true)) (= (mod ?x598 400) 0))))
 (let ((?x1431 (- ?x724 (* ?x931 365))))
 (let ((?x240 (ite $x1625 31 31)))
 (let (($x660 (>= ?x1431 ?x240)))
 (let ((?x643 (ite $x660 (+ (- ?x1431 ?x240) 1) (+ (- ?x1431 (ite $x1625 0 0)) 1))))
 (let ((?x601 (ite $x1625 60 59)))
 (let (($x604 (>= ?x1431 ?x601)))
 (let ((?x2983 (ite $x1625 91 90)))
 (let (($x680 (>= ?x1431 ?x2983)))
 (let ((?x734 (ite $x680 (+ (- ?x1431 ?x2983) 1) (ite $x604 (+ (- ?x1431 ?x601) 1) ?x643))))
 (let ((?x871 (ite $x1625 121 120)))
 (let (($x575 (>= ?x1431 ?x871)))
 (let ((?x671 (ite $x1625 152 151)))
 (let (($x526 (>= ?x1431 ?x671)))
 (let ((?x640 (ite $x526 (+ (- ?x1431 ?x671) 1) (ite $x575 (+ (- ?x1431 ?x871) 1) ?x734))))
 (let ((?x610 (ite $x1625 182 181)))
 (let (($x696 (>= ?x1431 ?x610)))
 (let ((?x331 (ite $x1625 213 212)))
 (let (($x467 (>= ?x1431 ?x331)))
 (let ((?x708 (ite $x467 (+ (- ?x1431 ?x331) 1) (ite $x696 (+ (- ?x1431 ?x610) 1) ?x640))))
 (let ((?x301 (ite $x1625 244 243)))
 (let (($x1189 (>= ?x1431 ?x301)))
 (let ((?x577 (ite $x1625 274 273)))
 (let (($x363 (>= ?x1431 ?x577)))
 (let ((?x275 (ite $x363 (+ (- ?x1431 ?x577) 1) (ite $x1189 (+ (- ?x1431 ?x301) 1) ?x708))))
 (let ((?x943 (ite $x1625 305 304)))
 (let (($x735 (>= ?x1431 ?x943)))
 (let ((?x388 (ite $x1625 335 334)))
 (let (($x233 (>= ?x1431 ?x388)))
 (let ((?x525 (ite $x233 (+ (- ?x1431 ?x388) 1) (ite $x735 (+ (- ?x1431 ?x943) 1) ?x275))))
 (let ((?x884 (ite $x575 5 (ite $x680 4 (ite $x604 3 (ite $x660 2 1))))))
 (let ((?x2652 (ite $x1189 9 (ite $x467 8 (ite $x696 7 (ite $x526 6 ?x884))))))
 (let ((?x777 (+ (ite $x233 12 (ite $x735 11 (ite $x363 10 ?x2652))) (+ (* 1 12) 0))))
 (let ((?x226 (- ?x777 1)))
 (let ((?x707 (+ (mod ?x226 12) 1)))
 (let ((?x948 (ite (or (= ?x707 4) (= ?x707 6) (= ?x707 9) (= ?x707 11)) 30 31)))
 (let (($x379 (and (= (mod (+ ?x598 (+ 0 (div ?x226 12))) 4) 0) (and (distinct (mod (+ ?x598 (+ 0 (div ?x226 12))) 100) 0) true))))
 (let (($x858 (or $x379 (= (mod (+ ?x598 (+ 0 (div ?x226 12))) 400) 0))))
 (let ((?x1265 (ite (= ?x707 2) (ite $x858 29 28) ?x948)))
 (let ((?x580 (ite (> 1 ?x525) 1 (ite (> ?x525 ?x1265) ?x1265 ?x525))))
 (let ((?x693 (ite (> 1 ?x580) 1 (ite (> ?x580 ?x1265) ?x1265 ?x580))))
 (let ((?x639 (ite (= 2 ?x707) (ite $x858 31 31) (ite (= 1 ?x707) (ite $x858 0 0) 0))))
 (let ((?x942 (ite (= 4 ?x707) (ite $x858 91 90) (ite (= 3 ?x707) (ite $x858 60 59) ?x639))))
 (let ((?x541 (ite (= 6 ?x707) (ite $x858 152 151) (ite (= 5 ?x707) (ite $x858 121 120) ?x942))))
 (let ((?x889 (ite (= 8 ?x707) (ite $x858 213 212) (ite (= 7 ?x707) (ite $x858 182 181) ?x541))))
 (let ((?x714 (ite (= 10 ?x707) (ite $x858 274 273) (ite (= 9 ?x707) (ite $x858 244 243) ?x889))))
 (let ((?x933 (ite (= 12 ?x707) (ite $x858 335 334) (ite (= 11 ?x707) (ite $x858 305 304) ?x714))))
 (let ((?x746 (+ (* 365 (- (+ ?x598 (+ 0 (div ?x226 12))) 1)) (div (- (+ ?x598 (+ 0 (div ?x226 12))) 1) 4))))
 (let ((?x951 (+ (- ?x746 (div (- (+ ?x598 (+ 0 (div ?x226 12))) 1) 100)) (div (- (+ ?x598 (+ 0 (div ?x226 12))) 1) 400))))
 (let ((?x620 (+ (+ (- (+ (+ ?x951 ?x933) (- ?x693 1)) 730179) 0) 730179)))
 (let ((?x878 (mod ?x620 146097)))
 (let ((?x736 (div ?x878 36524)))
 (let ((?x350 (ite (<= 4 ?x736) 3 ?x736)))
 (let ((?x744 (- ?x878 (* ?x350 36524))))
 (let ((?x273 (mod ?x744 1461)))
 (let ((?x276 (div ?x273 365)))
 (let ((?x519 (ite (<= 4 ?x276) 3 ?x276)))
 (let ((?x554 (+ (+ (* (div ?x620 146097) 400) (* ?x350 100)) (* (div ?x744 1461) 4))))
 (let ((?x704 (+ (+ ?x554 ?x519) 1)))
 (let (($x618 (or (and (= (mod ?x704 4) 0) (and (distinct (mod ?x704 100) 0) true)) (= (mod ?x704 400) 0))))
 (let ((?x743 (- ?x273 (* ?x519 365))))
 (let ((?x347 (ite $x618 31 31)))
 (let (($x920 (>= ?x743 ?x347)))
 (let ((?x438 (ite $x920 (+ (- ?x743 ?x347) 1) (+ (- ?x743 (ite $x618 0 0)) 1))))
 (let ((?x716 (ite $x618 60 59)))
 (let (($x405 (>= ?x743 ?x716)))
 (let ((?x3299 (ite $x618 91 90)))
 (let (($x677 (>= ?x743 ?x3299)))
 (let ((?x565 (ite $x677 (+ (- ?x743 ?x3299) 1) (ite $x405 (+ (- ?x743 ?x716) 1) ?x438))))
 (let ((?x2792 (ite $x618 121 120)))
 (let (($x579 (>= ?x743 ?x2792)))
 (let ((?x481 (ite $x618 152 151)))
 (let (($x738 (>= ?x743 ?x481)))
 (let ((?x556 (ite $x738 (+ (- ?x743 ?x481) 1) (ite $x579 (+ (- ?x743 ?x2792) 1) ?x565))))
 (let ((?x879 (ite $x618 182 181)))
 (let (($x723 (>= ?x743 ?x879)))
 (let ((?x709 (ite $x618 213 212)))
 (let (($x992 (>= ?x743 ?x709)))
 (let ((?x3419 (ite $x992 (+ (- ?x743 ?x709) 1) (ite $x723 (+ (- ?x743 ?x879) 1) ?x556))))
 (let ((?x586 (ite $x618 244 243)))
 (let (($x380 (>= ?x743 ?x586)))
 (let ((?x311 (ite $x618 274 273)))
 (let (($x2939 (>= ?x743 ?x311)))
 (let ((?x3393 (ite $x2939 (+ (- ?x743 ?x311) 1) (ite $x380 (+ (- ?x743 ?x586) 1) ?x3419))))
 (let ((?x385 (ite $x618 305 304)))
 (let (($x1477 (>= ?x743 ?x385)))
 (let ((?x781 (ite $x618 335 334)))
 (let (($x2919 (>= ?x743 ?x781)))
 (let ((?x1588 (ite $x2919 (+ (- ?x743 ?x781) 1) (ite $x1477 (+ (- ?x743 ?x385) 1) ?x3393))))
 (let (($x922 (= 0 0)))
 (let (($x454 (= (mod (ite $x922 (+ ?x598 (+ 0 (div ?x226 12))) ?x704) 400) 0)))
 (let (($x373 (and (distinct (mod (ite $x922 (+ ?x598 (+ 0 (div ?x226 12))) ?x704) 100) 0) true)))
 (let (($x534 (= (mod (ite $x922 (+ ?x598 (+ 0 (div ?x226 12))) ?x704) 4) 0)))
 (let (($x509 (or (and $x534 $x373) $x454)))
 (let ((?x3669 (ite $x579 5 (ite $x677 4 (ite $x405 3 (ite $x920 2 1))))))
 (let ((?x686 (ite $x380 9 (ite $x992 8 (ite $x723 7 (ite $x738 6 ?x3669))))))
 (let ((?x239 (ite $x922 ?x707 (ite $x2919 12 (ite $x1477 11 (ite $x2939 10 ?x686))))))
 (let ((?x940 (ite (= 2 ?x239) (ite $x509 31 31) (ite (= 1 ?x239) (ite $x509 0 0) 0))))
 (let ((?x581 (ite (= 4 ?x239) (ite $x509 91 90) (ite (= 3 ?x239) (ite $x509 60 59) ?x940))))
 (let ((?x949 (ite (= 6 ?x239) (ite $x509 152 151) (ite (= 5 ?x239) (ite $x509 121 120) ?x581))))
 (let ((?x778 (ite (= 8 ?x239) (ite $x509 213 212) (ite (= 7 ?x239) (ite $x509 182 181) ?x949))))
 (let ((?x315 (ite (= 10 ?x239) (ite $x509 274 273) (ite (= 9 ?x239) (ite $x509 244 243) ?x778))))
 (let ((?x2728 (ite (= 12 ?x239) (ite $x509 335 334) (ite (= 11 ?x239) (ite $x509 305 304) ?x315))))
 (let ((?x653 (+ ?x598 (+ 0 (div ?x226 12)))))
 (let ((?x3366 (ite $x922 ?x653 ?x704)))
 (let ((?x830 (- ?x3366 1)))
 (let ((?x364 (+ (- (+ (* 365 ?x830) (div ?x830 4)) (div ?x830 100)) (div ?x830 400))))
 (= y_days (- (+ (+ ?x364 ?x2728) (- (ite $x922 ?x693 ?x1588) 1)) 730179))))))))))))))))))))))))))))))))))))))))))))))))))))))))))))))))))))))))))))))))))))))))))))))))))))))))))))))))))))))))
(assert
 (not (= y_days (+ x_days 365))))
(check-sat)
